proyfinal/src/viki/013/experimentInOfficeAgust.take6.output/2f120978-5273-4ec0-8e2a-8b36598ed581.als.dat
{'cnf.clauses': '118081',
 'cnf.totvars': '69608',
 'conflict literals': '10',
 'conflicts': '8',
 'decisions': '6248',
 'memused.mb': '17.27',
 'outcome': 'UNSAT',
 'propagations': '31823',
 'restarts': '1',
 'solver.msecs': 33,
 'task.msecs': 82}
