proyfinal/src/viki/013/experimentInOfficeAgust.take6.output/2f120978-5273-4ec0-8e2a-8b36598ed581.als.out
Reading from standard input... Use '--help' for help.
============================[ Problem Statistics ]=============================
|                                                                             |
|  Number of variables:         69608                                         |
|  Number of clauses:          118081                                         |
|  Parse time:                   0.03 s                                       |
|                                                                             |
============================[ Search Statistics ]==============================
| Conflicts |          ORIGINAL         |          LEARNT          | Progress |
|           |    Vars  Clauses Literals |    Limit  Clauses Lit/Cl |          |
===============================================================================
===============================================================================
restarts              : 1
conflicts             : 8              (240 /sec)
decisions             : 6248           (0.00 % random) (187661 /sec)
propagations          : 31823          (955818 /sec)
conflict literals     : 10             (0.00 % deleted)
Memory used           : 17.27 MB
CPU time              : 0.033294 s

UNSATISFIABLE
